(declare-fun var0 () String)
(assert (RegexIn var0 (RegexConcat (RegexUnion (RegexUnion (Str2Reg "lll") (Str2Reg "mm")) (RegexPlus (Str2Reg "nnn"))) (RegexConcat (RegexStar (RegexUnion (Str2Reg "jj") (Str2Reg "kk"))) (RegexConcat (RegexPlus (RegexUnion (Str2Reg "hh") (Str2Reg "i"))) (RegexConcat (RegexUnion (RegexUnion (Str2Reg "eee") (Str2Reg "f")) (RegexStar (Str2Reg "gg"))) (RegexConcat (RegexPlus (RegexStar (Str2Reg "dd"))) (RegexConcat (RegexStar (RegexPlus (Str2Reg "cc"))) (RegexConcat (RegexUnion (RegexStar (Str2Reg "999")) (RegexUnion (Str2Reg "aaa") (Str2Reg "bb"))) (RegexConcat (RegexStar (RegexUnion (Str2Reg "77") (Str2Reg "888"))) (RegexConcat (RegexUnion (RegexStar (Str2Reg "4")) (RegexUnion (Str2Reg "55") (Str2Reg "666"))) (RegexConcat (RegexStar (RegexStar (Str2Reg "3"))) (RegexConcat (RegexStar (RegexPlus (Str2Reg "222"))) (RegexConcat (RegexStar (RegexPlus (Str2Reg "1"))) (RegexConcat (RegexStar (RegexStar (Str2Reg "00"))) (RegexConcat (RegexStar (RegexUnion (Str2Reg "}}") (Str2Reg "~"))) (RegexConcat (RegexStar (RegexPlus (Str2Reg "|||"))) (RegexConcat (RegexUnion (RegexPlus (Str2Reg "```")) (RegexStar (Str2Reg "{{"))) (RegexConcat (RegexPlus (RegexPlus (Str2Reg "_"))) (RegexConcat (RegexPlus (RegexPlus (Str2Reg "^^"))) (RegexConcat (RegexPlus (RegexPlus (Str2Reg "]]"))) (RegexConcat (RegexStar (RegexStar (Str2Reg "\\\\\\"))) (RegexConcat (RegexUnion (RegexStar (Str2Reg "@@")) (RegexPlus (Str2Reg "["))) (RegexConcat (RegexStar (RegexUnion (Str2Reg ">>") (Str2Reg "?"))) (RegexConcat (RegexUnion (RegexStar (Str2Reg "<")) (RegexPlus (Str2Reg "==="))) (RegexConcat (RegexStar (RegexStar (Str2Reg ";"))) (RegexConcat (RegexPlus (RegexPlus (Str2Reg ":::"))) (RegexConcat (RegexPlus (RegexPlus (Str2Reg "///"))) (RegexConcat (RegexPlus (RegexPlus (Str2Reg "..."))) (RegexConcat (RegexStar (RegexStar (Str2Reg "--"))) (RegexConcat (RegexStar (RegexPlus (Str2Reg ","))) (RegexConcat (RegexStar (RegexPlus (Str2Reg "+++"))) (RegexConcat (RegexStar (RegexStar (Str2Reg "***"))) (RegexConcat (RegexUnion (RegexStar (Str2Reg "(((")) (RegexPlus (Str2Reg ")"))) (RegexConcat (RegexUnion (RegexPlus (Str2Reg "%%")) (RegexUnion (Str2Reg "&&&") (Str2Reg "''"))) (RegexConcat (RegexUnion (RegexPlus (Str2Reg "\"\"\"")) (RegexUnion (Str2Reg "##") (Str2Reg "$$$"))) (RegexConcat (RegexPlus (RegexPlus (Str2Reg "!"))) (RegexConcat (RegexPlus (RegexStar (Str2Reg "ZZ"))) (RegexConcat (RegexStar (RegexUnion (Str2Reg "XX") (Str2Reg "Y"))) (RegexConcat (RegexUnion (RegexStar (Str2Reg "VVV")) (RegexStar (Str2Reg "W"))) (RegexConcat (RegexPlus (RegexUnion (Str2Reg "TTT") (Str2Reg "UUU"))) (RegexConcat (RegexUnion (RegexStar (Str2Reg "RRR")) (RegexPlus (Str2Reg "SSS"))) (RegexConcat (RegexPlus (RegexPlus (Str2Reg "QQQ"))) (RegexConcat (RegexStar (RegexPlus (Str2Reg "PP"))) (RegexConcat (RegexUnion (RegexUnion (Str2Reg "M") (Str2Reg "NN")) (RegexStar (Str2Reg "OO"))) (RegexConcat (RegexStar (RegexStar (Str2Reg "LLL"))) (RegexConcat (RegexStar (RegexStar (Str2Reg "KKK"))) (RegexConcat (RegexPlus (RegexPlus (Str2Reg "JJJ"))) (RegexConcat (RegexStar (RegexStar (Str2Reg "III"))) (RegexConcat (RegexPlus (RegexStar (Str2Reg "HHH"))) (RegexConcat (RegexStar (RegexPlus (Str2Reg "G"))) (RegexConcat (RegexStar (RegexPlus (Str2Reg "F"))) (RegexConcat (RegexStar (RegexStar (Str2Reg "EEE"))) (RegexConcat (RegexPlus (RegexUnion (Str2Reg "CCC") (Str2Reg "D"))) (RegexConcat (RegexUnion (RegexStar (Str2Reg "AAA")) (RegexPlus (Str2Reg "BBB"))) (RegexConcat (RegexPlus (RegexPlus (Str2Reg "zz"))) (RegexConcat (RegexUnion (RegexPlus (Str2Reg "www")) (RegexUnion (Str2Reg "x") (Str2Reg "yy"))) (RegexConcat (RegexPlus (RegexPlus (Str2Reg "vv"))) (RegexConcat (RegexStar (RegexPlus (Str2Reg "uu"))) (RegexConcat (RegexPlus (RegexUnion (Str2Reg "sss") (Str2Reg "tt"))) (RegexConcat (RegexStar (RegexStar (Str2Reg "rrr"))) (RegexConcat (RegexUnion (RegexStar (Str2Reg "p")) (RegexStar (Str2Reg "qqq"))) (RegexConcat (RegexStar (RegexUnion (Str2Reg "n") (Str2Reg "oo"))) (RegexConcat (RegexPlus (RegexPlus (Str2Reg "mm"))) (RegexConcat (RegexUnion (RegexStar (Str2Reg "kk")) (RegexStar (Str2Reg "l"))) (RegexConcat (RegexStar (RegexStar (Str2Reg "jjj"))) (RegexConcat (RegexPlus (RegexPlus (Str2Reg "iii"))) (RegexConcat (RegexPlus (RegexUnion (Str2Reg "gg") (Str2Reg "h"))) (RegexConcat (RegexStar (RegexUnion (Str2Reg "e") (Str2Reg "f"))) (RegexConcat (RegexStar (RegexPlus (Str2Reg "dd"))) (RegexConcat (RegexStar (RegexPlus (Str2Reg "c"))) (RegexConcat (RegexUnion (RegexPlus (Str2Reg "99")) (RegexUnion (Str2Reg "a") (Str2Reg "bbb"))) (RegexConcat (RegexPlus (RegexStar (Str2Reg "8"))) (RegexConcat (RegexPlus (RegexUnion (Str2Reg "66") (Str2Reg "77"))) (RegexConcat (RegexUnion (RegexPlus (Str2Reg "33")) (RegexUnion (Str2Reg "4") (Str2Reg "555"))) (RegexConcat (RegexStar (RegexPlus (Str2Reg "2"))) (RegexConcat (RegexPlus (RegexStar (Str2Reg "1"))) (RegexPlus (RegexStar (Str2Reg "0"))))))))))))))))))))))))))))))))))))))))))))))))))))))))))))))))))))))))))))))))
(assert (not (RegexIn var0 (RegexConcat (RegexPlus (RegexUnion (Str2Reg "MM") (Str2Reg "NNN"))) (RegexConcat (RegexUnion (RegexPlus (Str2Reg "KK")) (RegexPlus (Str2Reg "LL"))) (RegexConcat (RegexUnion (RegexPlus (Str2Reg "II")) (RegexPlus (Str2Reg "J"))) (RegexConcat (RegexStar (RegexPlus (Str2Reg "H"))) (RegexConcat (RegexStar (RegexPlus (Str2Reg "GG"))) (RegexConcat (RegexUnion (RegexPlus (Str2Reg "DD")) (RegexUnion (Str2Reg "EEE") (Str2Reg "F"))) (RegexConcat (RegexStar (RegexStar (Str2Reg "CC"))) (RegexConcat (RegexPlus (RegexUnion (Str2Reg "AA") (Str2Reg "BB"))) (RegexConcat (RegexPlus (RegexUnion (Str2Reg "yy") (Str2Reg "zz"))) (RegexConcat (RegexUnion (RegexPlus (Str2Reg "vv")) (RegexUnion (Str2Reg "w") (Str2Reg "xx"))) (RegexConcat (RegexPlus (RegexUnion (Str2Reg "tt") (Str2Reg "uuu"))) (RegexConcat (RegexUnion (RegexStar (Str2Reg "rr")) (RegexStar (Str2Reg "s"))) (RegexConcat (RegexPlus (RegexUnion (Str2Reg "p") (Str2Reg "q"))) (RegexConcat (RegexPlus (RegexUnion (Str2Reg "nn") (Str2Reg "ooo"))) (RegexConcat (RegexUnion (RegexUnion (Str2Reg "kkk") (Str2Reg "ll")) (RegexPlus (Str2Reg "mmm"))) (RegexConcat (RegexPlus (RegexPlus (Str2Reg "jj"))) (RegexConcat (RegexPlus (RegexStar (Str2Reg "ii"))) (RegexConcat (RegexStar (RegexUnion (Str2Reg "g") (Str2Reg "h"))) (RegexConcat (RegexPlus (RegexStar (Str2Reg "fff"))) (RegexConcat (RegexPlus (RegexUnion (Str2Reg "d") (Str2Reg "eee"))) (RegexConcat (RegexUnion (RegexPlus (Str2Reg "aa")) (RegexUnion (Str2Reg "b") (Str2Reg "c"))) (RegexConcat (RegexPlus (RegexStar (Str2Reg "99"))) (RegexConcat (RegexUnion (RegexUnion (Str2Reg "6") (Str2Reg "777")) (RegexStar (Str2Reg "88"))) (RegexConcat (RegexStar (RegexStar (Str2Reg "55"))) (RegexConcat (RegexPlus (RegexStar (Str2Reg "44"))) (RegexConcat (RegexUnion (RegexPlus (Str2Reg "222")) (RegexPlus (Str2Reg "3"))) (RegexConcat (RegexPlus (RegexPlus (Str2Reg "1"))) (RegexConcat (RegexPlus (RegexPlus (Str2Reg "00"))) (RegexConcat (RegexPlus (RegexUnion (Str2Reg "}}") (Str2Reg "~"))) (RegexConcat (RegexUnion (RegexPlus (Str2Reg "```")) (RegexUnion (Str2Reg "{{{") (Str2Reg "||"))) (RegexConcat (RegexUnion (RegexStar (Str2Reg "^^^")) (RegexStar (Str2Reg "__"))) (RegexConcat (RegexPlus (RegexUnion (Str2Reg "\\") (Str2Reg "]]"))) (RegexConcat (RegexPlus (RegexStar (Str2Reg "["))) (RegexConcat (RegexPlus (RegexUnion (Str2Reg "???") (Str2Reg "@"))) (RegexConcat (RegexUnion (RegexUnion (Str2Reg "<<") (Str2Reg "==")) (RegexPlus (Str2Reg ">>"))) (RegexConcat (RegexStar (RegexUnion (Str2Reg "::") (Str2Reg ";"))) (RegexConcat (RegexUnion (RegexPlus (Str2Reg ".")) (RegexStar (Str2Reg "/"))) (RegexConcat (RegexPlus (RegexUnion (Str2Reg ",,") (Str2Reg "-"))) (RegexConcat (RegexStar (RegexPlus (Str2Reg "+++"))) (RegexConcat (RegexStar (RegexStar (Str2Reg "***"))) (RegexConcat (RegexUnion (RegexStar (Str2Reg "''")) (RegexUnion (Str2Reg "(((") (Str2Reg ")))"))) (RegexConcat (RegexPlus (RegexUnion (Str2Reg "%%%") (Str2Reg "&&"))) (RegexConcat (RegexUnion (RegexUnion (Str2Reg "\"\"\"") (Str2Reg "###")) (RegexStar (Str2Reg "$$$"))) (RegexConcat (RegexStar (RegexUnion (Str2Reg "Z") (Str2Reg "!"))) (RegexConcat (RegexPlus (RegexUnion (Str2Reg "X") (Str2Reg "Y"))) (RegexConcat (RegexUnion (RegexStar (Str2Reg "VVV")) (RegexPlus (Str2Reg "W"))) (RegexConcat (RegexPlus (RegexStar (Str2Reg "UU"))) (RegexConcat (RegexStar (RegexStar (Str2Reg "T"))) (RegexConcat (RegexStar (RegexStar (Str2Reg "S"))) (RegexConcat (RegexUnion (RegexPlus (Str2Reg "QQ")) (RegexStar (Str2Reg "R"))) (RegexConcat (RegexUnion (RegexUnion (Str2Reg "MM") (Str2Reg "NN")) (RegexUnion (Str2Reg "O") (Str2Reg "PPP"))) (RegexConcat (RegexUnion (RegexPlus (Str2Reg "KK")) (RegexStar (Str2Reg "LLL"))) (RegexConcat (RegexPlus (RegexPlus (Str2Reg "J"))) (RegexConcat (RegexUnion (RegexUnion (Str2Reg "GGG") (Str2Reg "HHH")) (RegexPlus (Str2Reg "II"))) (RegexConcat (RegexUnion (RegexStar (Str2Reg "DD")) (RegexUnion (Str2Reg "EE") (Str2Reg "FF"))) (RegexConcat (RegexPlus (RegexUnion (Str2Reg "BB") (Str2Reg "CCC"))) (RegexConcat (RegexUnion (RegexPlus (Str2Reg "yy")) (RegexUnion (Str2Reg "zzz") (Str2Reg "AAA"))) (RegexConcat (RegexStar (RegexStar (Str2Reg "xx"))) (RegexConcat (RegexPlus (RegexUnion (Str2Reg "vvv") (Str2Reg "w"))) (RegexConcat (RegexStar (RegexStar (Str2Reg "u"))) (RegexConcat (RegexStar (RegexPlus (Str2Reg "ttt"))) (RegexConcat (RegexUnion (RegexPlus (Str2Reg "rrr")) (RegexStar (Str2Reg "s"))) (RegexConcat (RegexPlus (RegexStar (Str2Reg "q"))) (RegexConcat (RegexPlus (RegexPlus (Str2Reg "ppp"))) (RegexConcat (RegexUnion (RegexUnion (Str2Reg "ll") (Str2Reg "m")) (RegexUnion (Str2Reg "nn") (Str2Reg "ooo"))) (RegexConcat (RegexStar (RegexUnion (Str2Reg "jjj") (Str2Reg "kk"))) (RegexConcat (RegexPlus (RegexUnion (Str2Reg "hhh") (Str2Reg "iii"))) (RegexConcat (RegexPlus (RegexPlus (Str2Reg "gg"))) (RegexConcat (RegexUnion (RegexUnion (Str2Reg "cc") (Str2Reg "ddd")) (RegexUnion (Str2Reg "ee") (Str2Reg "fff"))) (RegexConcat (RegexStar (RegexUnion (Str2Reg "aa") (Str2Reg "b"))) (RegexConcat (RegexPlus (RegexUnion (Str2Reg "8") (Str2Reg "9"))) (RegexConcat (RegexPlus (RegexUnion (Str2Reg "666") (Str2Reg "777"))) (RegexConcat (RegexPlus (RegexUnion (Str2Reg "44") (Str2Reg "55"))) (RegexConcat (RegexStar (RegexStar (Str2Reg "33"))) (RegexConcat (RegexStar (RegexUnion (Str2Reg "111") (Str2Reg "2"))) (RegexStar (RegexPlus (Str2Reg "000")))))))))))))))))))))))))))))))))))))))))))))))))))))))))))))))))))))))))))))))))
(check-sat)